MINIMIZE 
r 

SUBJECT TO 

\DEMAND CONSTRAINTS 
x111 + x121 + x131 = 2 
x112 + x122 + x132 = 3 
x113 + x123 + x133 = 4 
x114 + x124 + x134 = 5 
x115 + x125 + x135 = 6 
x116 + x126 + x136 = 7 
x117 + x127 + x137 = 8 
x211 + x221 + x231 = 3 
x212 + x222 + x232 = 4 
x213 + x223 + x233 = 5 
x214 + x224 + x234 = 6 
x215 + x225 + x235 = 7 
x216 + x226 + x236 = 8 
x217 + x227 + x237 = 9 
x311 + x321 + x331 = 4 
x312 + x322 + x332 = 5 
x313 + x323 + x333 = 6 
x314 + x324 + x334 = 7 
x315 + x325 + x335 = 8 
x316 + x326 + x336 = 9 
x317 + x327 + x337 = 10 
x411 + x421 + x431 = 5 
x412 + x422 + x432 = 6 
x413 + x423 + x433 = 7 
x414 + x424 + x434 = 8 
x415 + x425 + x435 = 9 
x416 + x426 + x436 = 10 
x417 + x427 + x437 = 11 
x511 + x521 + x531 = 6 
x512 + x522 + x532 = 7 
x513 + x523 + x533 = 8 
x514 + x524 + x534 = 9 
x515 + x525 + x535 = 10 
x516 + x526 + x536 = 11 
x517 + x527 + x537 = 12 
x611 + x621 + x631 = 7 
x612 + x622 + x632 = 8 
x613 + x623 + x633 = 9 
x614 + x624 + x634 = 10 
x615 + x625 + x635 = 11 
x616 + x626 + x636 = 12 
x617 + x627 + x637 = 13 
x711 + x721 + x731 = 8 
x712 + x722 + x732 = 9 
x713 + x723 + x733 = 10 
x714 + x724 + x734 = 11 
x715 + x725 + x735 = 12 
x716 + x726 + x736 = 13 
x717 + x727 + x737 = 14 

\CAPACITY FOR SOURCE TO TRANSIT 
x111 + x112 + x113 + x114 + x115 + x116 + x117 - c11 = 0 
x121 + x122 + x123 + x124 + x125 + x126 + x127 - c12 = 0 
x131 + x132 + x133 + x134 + x135 + x136 + x137 - c13 = 0 
x211 + x212 + x213 + x214 + x215 + x216 + x217 - c21 = 0 
x221 + x222 + x223 + x224 + x225 + x226 + x227 - c22 = 0 
x231 + x232 + x233 + x234 + x235 + x236 + x237 - c23 = 0 
x311 + x312 + x313 + x314 + x315 + x316 + x317 - c31 = 0 
x321 + x322 + x323 + x324 + x325 + x326 + x327 - c32 = 0 
x331 + x332 + x333 + x334 + x335 + x336 + x337 - c33 = 0 
x411 + x412 + x413 + x414 + x415 + x416 + x417 - c41 = 0 
x421 + x422 + x423 + x424 + x425 + x426 + x427 - c42 = 0 
x431 + x432 + x433 + x434 + x435 + x436 + x437 - c43 = 0 
x511 + x512 + x513 + x514 + x515 + x516 + x517 - c51 = 0 
x521 + x522 + x523 + x524 + x525 + x526 + x527 - c52 = 0 
x531 + x532 + x533 + x534 + x535 + x536 + x537 - c53 = 0 
x611 + x612 + x613 + x614 + x615 + x616 + x617 - c61 = 0 
x621 + x622 + x623 + x624 + x625 + x626 + x627 - c62 = 0 
x631 + x632 + x633 + x634 + x635 + x636 + x637 - c63 = 0 
x711 + x712 + x713 + x714 + x715 + x716 + x717 - c71 = 0 
x721 + x722 + x723 + x724 + x725 + x726 + x727 - c72 = 0 
x731 + x732 + x733 + x734 + x735 + x736 + x737 - c73 = 0 

\CAPCITY FOR TRANSIT TO DEST 
x111 + x211 + x311 + x411 + x511 + x611 + x711 - d11 = 0 
x112 + x212 + x312 + x412 + x512 + x612 + x712 - d12 = 0 
x113 + x213 + x313 + x413 + x513 + x613 + x713 - d13 = 0 
x114 + x214 + x314 + x414 + x514 + x614 + x714 - d14 = 0 
x115 + x215 + x315 + x415 + x515 + x615 + x715 - d15 = 0 
x116 + x216 + x316 + x416 + x516 + x616 + x716 - d16 = 0 
x117 + x217 + x317 + x417 + x517 + x617 + x717 - d17 = 0 
x121 + x221 + x321 + x421 + x521 + x621 + x721 - d21 = 0 
x122 + x222 + x322 + x422 + x522 + x622 + x722 - d22 = 0 
x123 + x223 + x323 + x423 + x523 + x623 + x723 - d23 = 0 
x124 + x224 + x324 + x424 + x524 + x624 + x724 - d24 = 0 
x125 + x225 + x325 + x425 + x525 + x625 + x725 - d25 = 0 
x126 + x226 + x326 + x426 + x526 + x626 + x726 - d26 = 0 
x127 + x227 + x327 + x427 + x527 + x627 + x727 - d27 = 0 
x131 + x231 + x331 + x431 + x531 + x631 + x731 - d31 = 0 
x132 + x232 + x332 + x432 + x532 + x632 + x732 - d32 = 0 
x133 + x233 + x333 + x433 + x533 + x633 + x733 - d33 = 0 
x134 + x234 + x334 + x434 + x534 + x634 + x734 - d34 = 0 
x135 + x235 + x335 + x435 + x535 + x635 + x735 - d35 = 0 
x136 + x236 + x336 + x436 + x536 + x636 + x736 - d36 = 0 
x137 + x237 + x337 + x437 + x537 + x637 + x737 - d37 = 0 

\TRANSIT LOAD CONSTRAINTS
x111 + x112 + x113 + x114 + x115 + x116 + x117 + x211 + x212 + x213 + x214 + x215 + x216 + x217 + x311 + x312 + x313 + x314 + x315 + x316 + x317 + x411 + x412 + x413 + x414 + x415 + x416 + x417 + x511 + x512 + x513 + x514 + x515 + x516 + x517 + x611 + x612 + x613 + x614 + x615 + x616 + x617 + x711 + x712 + x713 + x714 + x715 + x716 + x717 - r <= 0 
x121 + x122 + x123 + x124 + x125 + x126 + x127 + x221 + x222 + x223 + x224 + x225 + x226 + x227 + x321 + x322 + x323 + x324 + x325 + x326 + x327 + x421 + x422 + x423 + x424 + x425 + x426 + x427 + x521 + x522 + x523 + x524 + x525 + x526 + x527 + x621 + x622 + x623 + x624 + x625 + x626 + x627 + x721 + x722 + x723 + x724 + x725 + x726 + x727 - r <= 0 
x131 + x132 + x133 + x134 + x135 + x136 + x137 + x231 + x232 + x233 + x234 + x235 + x236 + x237 + x331 + x332 + x333 + x334 + x335 + x336 + x337 + x431 + x432 + x433 + x434 + x435 + x436 + x437 + x531 + x532 + x533 + x534 + x535 + x536 + x537 + x631 + x632 + x633 + x634 + x635 + x636 + x637 + x731 + x732 + x733 + x734 + x735 + x736 + x737 - r <= 0 

\DEMAND FLOW 
2x111 - 2u111 = 0 
2x112 - 3u112 = 0 
2x113 - 4u113 = 0 
2x114 - 5u114 = 0 
2x115 - 6u115 = 0 
2x116 - 7u116 = 0 
2x117 - 8u117 = 0 
2x121 - 2u121 = 0 
2x122 - 3u122 = 0 
2x123 - 4u123 = 0 
2x124 - 5u124 = 0 
2x125 - 6u125 = 0 
2x126 - 7u126 = 0 
2x127 - 8u127 = 0 
2x131 - 2u131 = 0 
2x132 - 3u132 = 0 
2x133 - 4u133 = 0 
2x134 - 5u134 = 0 
2x135 - 6u135 = 0 
2x136 - 7u136 = 0 
2x137 - 8u137 = 0 
2x211 - 3u211 = 0 
2x212 - 4u212 = 0 
2x213 - 5u213 = 0 
2x214 - 6u214 = 0 
2x215 - 7u215 = 0 
2x216 - 8u216 = 0 
2x217 - 9u217 = 0 
2x221 - 3u221 = 0 
2x222 - 4u222 = 0 
2x223 - 5u223 = 0 
2x224 - 6u224 = 0 
2x225 - 7u225 = 0 
2x226 - 8u226 = 0 
2x227 - 9u227 = 0 
2x231 - 3u231 = 0 
2x232 - 4u232 = 0 
2x233 - 5u233 = 0 
2x234 - 6u234 = 0 
2x235 - 7u235 = 0 
2x236 - 8u236 = 0 
2x237 - 9u237 = 0 
2x311 - 4u311 = 0 
2x312 - 5u312 = 0 
2x313 - 6u313 = 0 
2x314 - 7u314 = 0 
2x315 - 8u315 = 0 
2x316 - 9u316 = 0 
2x317 - 10u317 = 0 
2x321 - 4u321 = 0 
2x322 - 5u322 = 0 
2x323 - 6u323 = 0 
2x324 - 7u324 = 0 
2x325 - 8u325 = 0 
2x326 - 9u326 = 0 
2x327 - 10u327 = 0 
2x331 - 4u331 = 0 
2x332 - 5u332 = 0 
2x333 - 6u333 = 0 
2x334 - 7u334 = 0 
2x335 - 8u335 = 0 
2x336 - 9u336 = 0 
2x337 - 10u337 = 0 
2x411 - 5u411 = 0 
2x412 - 6u412 = 0 
2x413 - 7u413 = 0 
2x414 - 8u414 = 0 
2x415 - 9u415 = 0 
2x416 - 10u416 = 0 
2x417 - 11u417 = 0 
2x421 - 5u421 = 0 
2x422 - 6u422 = 0 
2x423 - 7u423 = 0 
2x424 - 8u424 = 0 
2x425 - 9u425 = 0 
2x426 - 10u426 = 0 
2x427 - 11u427 = 0 
2x431 - 5u431 = 0 
2x432 - 6u432 = 0 
2x433 - 7u433 = 0 
2x434 - 8u434 = 0 
2x435 - 9u435 = 0 
2x436 - 10u436 = 0 
2x437 - 11u437 = 0 
2x511 - 6u511 = 0 
2x512 - 7u512 = 0 
2x513 - 8u513 = 0 
2x514 - 9u514 = 0 
2x515 - 10u515 = 0 
2x516 - 11u516 = 0 
2x517 - 12u517 = 0 
2x521 - 6u521 = 0 
2x522 - 7u522 = 0 
2x523 - 8u523 = 0 
2x524 - 9u524 = 0 
2x525 - 10u525 = 0 
2x526 - 11u526 = 0 
2x527 - 12u527 = 0 
2x531 - 6u531 = 0 
2x532 - 7u532 = 0 
2x533 - 8u533 = 0 
2x534 - 9u534 = 0 
2x535 - 10u535 = 0 
2x536 - 11u536 = 0 
2x537 - 12u537 = 0 
2x611 - 7u611 = 0 
2x612 - 8u612 = 0 
2x613 - 9u613 = 0 
2x614 - 10u614 = 0 
2x615 - 11u615 = 0 
2x616 - 12u616 = 0 
2x617 - 13u617 = 0 
2x621 - 7u621 = 0 
2x622 - 8u622 = 0 
2x623 - 9u623 = 0 
2x624 - 10u624 = 0 
2x625 - 11u625 = 0 
2x626 - 12u626 = 0 
2x627 - 13u627 = 0 
2x631 - 7u631 = 0 
2x632 - 8u632 = 0 
2x633 - 9u633 = 0 
2x634 - 10u634 = 0 
2x635 - 11u635 = 0 
2x636 - 12u636 = 0 
2x637 - 13u637 = 0 
2x711 - 8u711 = 0 
2x712 - 9u712 = 0 
2x713 - 10u713 = 0 
2x714 - 11u714 = 0 
2x715 - 12u715 = 0 
2x716 - 13u716 = 0 
2x717 - 14u717 = 0 
2x721 - 8u721 = 0 
2x722 - 9u722 = 0 
2x723 - 10u723 = 0 
2x724 - 11u724 = 0 
2x725 - 12u725 = 0 
2x726 - 13u726 = 0 
2x727 - 14u727 = 0 
2x731 - 8u731 = 0 
2x732 - 9u732 = 0 
2x733 - 10u733 = 0 
2x734 - 11u734 = 0 
2x735 - 12u735 = 0 
2x736 - 13u736 = 0 
2x737 - 14u737 = 0 

\BINARY VARIABLES 
u111 + u121 + u131 = 2 
u112 + u122 + u132 = 2 
u113 + u123 + u133 = 2 
u114 + u124 + u134 = 2 
u115 + u125 + u135 = 2 
u116 + u126 + u136 = 2 
u117 + u127 + u137 = 2 
u211 + u221 + u231 = 2 
u212 + u222 + u232 = 2 
u213 + u223 + u233 = 2 
u214 + u224 + u234 = 2 
u215 + u225 + u235 = 2 
u216 + u226 + u236 = 2 
u217 + u227 + u237 = 2 
u311 + u321 + u331 = 2 
u312 + u322 + u332 = 2 
u313 + u323 + u333 = 2 
u314 + u324 + u334 = 2 
u315 + u325 + u335 = 2 
u316 + u326 + u336 = 2 
u317 + u327 + u337 = 2 
u411 + u421 + u431 = 2 
u412 + u422 + u432 = 2 
u413 + u423 + u433 = 2 
u414 + u424 + u434 = 2 
u415 + u425 + u435 = 2 
u416 + u426 + u436 = 2 
u417 + u427 + u437 = 2 
u511 + u521 + u531 = 2 
u512 + u522 + u532 = 2 
u513 + u523 + u533 = 2 
u514 + u524 + u534 = 2 
u515 + u525 + u535 = 2 
u516 + u526 + u536 = 2 
u517 + u527 + u537 = 2 
u611 + u621 + u631 = 2 
u612 + u622 + u632 = 2 
u613 + u623 + u633 = 2 
u614 + u624 + u634 = 2 
u615 + u625 + u635 = 2 
u616 + u626 + u636 = 2 
u617 + u627 + u637 = 2 
u711 + u721 + u731 = 2 
u712 + u722 + u732 = 2 
u713 + u723 + u733 = 2 
u714 + u724 + u734 = 2 
u715 + u725 + u735 = 2 
u716 + u726 + u736 = 2 
u717 + u727 + u737 = 2 

BOUNDS 
r >= 0 
x111 >= 0 
x112 >= 0 
x113 >= 0 
x114 >= 0 
x115 >= 0 
x116 >= 0 
x117 >= 0 
x121 >= 0 
x122 >= 0 
x123 >= 0 
x124 >= 0 
x125 >= 0 
x126 >= 0 
x127 >= 0 
x131 >= 0 
x132 >= 0 
x133 >= 0 
x134 >= 0 
x135 >= 0 
x136 >= 0 
x137 >= 0 
x211 >= 0 
x212 >= 0 
x213 >= 0 
x214 >= 0 
x215 >= 0 
x216 >= 0 
x217 >= 0 
x221 >= 0 
x222 >= 0 
x223 >= 0 
x224 >= 0 
x225 >= 0 
x226 >= 0 
x227 >= 0 
x231 >= 0 
x232 >= 0 
x233 >= 0 
x234 >= 0 
x235 >= 0 
x236 >= 0 
x237 >= 0 
x311 >= 0 
x312 >= 0 
x313 >= 0 
x314 >= 0 
x315 >= 0 
x316 >= 0 
x317 >= 0 
x321 >= 0 
x322 >= 0 
x323 >= 0 
x324 >= 0 
x325 >= 0 
x326 >= 0 
x327 >= 0 
x331 >= 0 
x332 >= 0 
x333 >= 0 
x334 >= 0 
x335 >= 0 
x336 >= 0 
x337 >= 0 
x411 >= 0 
x412 >= 0 
x413 >= 0 
x414 >= 0 
x415 >= 0 
x416 >= 0 
x417 >= 0 
x421 >= 0 
x422 >= 0 
x423 >= 0 
x424 >= 0 
x425 >= 0 
x426 >= 0 
x427 >= 0 
x431 >= 0 
x432 >= 0 
x433 >= 0 
x434 >= 0 
x435 >= 0 
x436 >= 0 
x437 >= 0 
x511 >= 0 
x512 >= 0 
x513 >= 0 
x514 >= 0 
x515 >= 0 
x516 >= 0 
x517 >= 0 
x521 >= 0 
x522 >= 0 
x523 >= 0 
x524 >= 0 
x525 >= 0 
x526 >= 0 
x527 >= 0 
x531 >= 0 
x532 >= 0 
x533 >= 0 
x534 >= 0 
x535 >= 0 
x536 >= 0 
x537 >= 0 
x611 >= 0 
x612 >= 0 
x613 >= 0 
x614 >= 0 
x615 >= 0 
x616 >= 0 
x617 >= 0 
x621 >= 0 
x622 >= 0 
x623 >= 0 
x624 >= 0 
x625 >= 0 
x626 >= 0 
x627 >= 0 
x631 >= 0 
x632 >= 0 
x633 >= 0 
x634 >= 0 
x635 >= 0 
x636 >= 0 
x637 >= 0 
x711 >= 0 
x712 >= 0 
x713 >= 0 
x714 >= 0 
x715 >= 0 
x716 >= 0 
x717 >= 0 
x721 >= 0 
x722 >= 0 
x723 >= 0 
x724 >= 0 
x725 >= 0 
x726 >= 0 
x727 >= 0 
x731 >= 0 
x732 >= 0 
x733 >= 0 
x734 >= 0 
x735 >= 0 
x736 >= 0 
x737 >= 0 
c11 >= 0
c12 >= 0
c13 >= 0
c21 >= 0
c22 >= 0
c23 >= 0
c31 >= 0
c32 >= 0
c33 >= 0
c41 >= 0
c42 >= 0
c43 >= 0
c51 >= 0
c52 >= 0
c53 >= 0
c61 >= 0
c62 >= 0
c63 >= 0
c71 >= 0
c72 >= 0
c73 >= 0
d11 >= 0 
d12 >= 0 
d13 >= 0 
d14 >= 0 
d15 >= 0 
d16 >= 0 
d17 >= 0 
d21 >= 0 
d22 >= 0 
d23 >= 0 
d24 >= 0 
d25 >= 0 
d26 >= 0 
d27 >= 0 
d31 >= 0 
d32 >= 0 
d33 >= 0 
d34 >= 0 
d35 >= 0 
d36 >= 0 
d37 >= 0 

BINARY 
u111 
u121 
u131 
u112 
u122 
u132 
u113 
u123 
u133 
u114 
u124 
u134 
u115 
u125 
u135 
u116 
u126 
u136 
u117 
u127 
u137 
u211 
u221 
u231 
u212 
u222 
u232 
u213 
u223 
u233 
u214 
u224 
u234 
u215 
u225 
u235 
u216 
u226 
u236 
u217 
u227 
u237 
u311 
u321 
u331 
u312 
u322 
u332 
u313 
u323 
u333 
u314 
u324 
u334 
u315 
u325 
u335 
u316 
u326 
u336 
u317 
u327 
u337 
u411 
u421 
u431 
u412 
u422 
u432 
u413 
u423 
u433 
u414 
u424 
u434 
u415 
u425 
u435 
u416 
u426 
u436 
u417 
u427 
u437 
u511 
u521 
u531 
u512 
u522 
u532 
u513 
u523 
u533 
u514 
u524 
u534 
u515 
u525 
u535 
u516 
u526 
u536 
u517 
u527 
u537 
u611 
u621 
u631 
u612 
u622 
u632 
u613 
u623 
u633 
u614 
u624 
u634 
u615 
u625 
u635 
u616 
u626 
u636 
u617 
u627 
u637 
u711 
u721 
u731 
u712 
u722 
u732 
u713 
u723 
u733 
u714 
u724 
u734 
u715 
u725 
u735 
u716 
u726 
u736 
u717 
u727 
u737 
END 
